Route #1: 1 33 2 48 22 41 43 1 
Route #2: 1 28 21 36 15 27 45 49 1 
Route #3: 1 4 8 6 16 24 23 1 
Route #4: 1 1 30 29 13 5 37 47 1 
Route #5: 1 42 3 44 32 39 12 26 1 
Route #6: 1 17 7 14 46 34 1 
Route #7: 1 40 25 31 11 35 1 
Route #8: 1 9 10 38 19 20 1 
Route #9: 1 18 1 

Cost 1041.37
Time 0.5749


 * Another infos *

 Iterations: 50 Time: 0.5749 sec - 0.0096 min - 0.0002 horas
0.0000 h 0.0096 min
Problem dimension: 50
